RT is False
Default write of storage_offers_DA.csv just to have a file (but constraint should be inactive)
Reading model...
...model read.
creating competitive generators file...
...competitive generators recorded.
Loading data...
.. day-ahead data with real-time VRE data read.
Compiling instance...
...instance created.
Creating Offer Mitigation (model will solve as dispatch if TRUE)...
Solving...

Welcome to IBM(R) ILOG(R) CPLEX(R) Interactive Optimizer 12.9.0.0
  with Simplex, Mixed Integer & Barrier Optimizers
5725-A06 5725-A29 5724-Y48 5724-Y49 5724-Y54 5724-Y55 5655-Y21
Copyright IBM Corp. 1988, 2019.  All Rights Reserved.

Type 'help' for a list of available commands.
Type 'help' followed by a command name for more
information on commands.

CPLEX> Logfile 'cplex.log' closed.
Logfile 'C:\Users\Luke\Desktop\test919\logs\tmpj358n2oz.cplex.log' open.
CPLEX> New value for parallel optimization mode: -1
CPLEX> New value for mixed integer optimality gap tolerance: 0.01
CPLEX> New value for integrality tolerance: 1e-09
CPLEX> New value for feasibility tolerance: 0.01
CPLEX> New value for deterministic time limit in ticks: 75000
CPLEX> Problem 'C:\Users\Luke\Desktop\test919\logs\tmp6lgjo7au.pyomo.lp' read.
Read time = 0.05 sec. (3.04 ticks)
CPLEX> Problem name         : C:\Users\Luke\Desktop\test919\logs\tmp6lgjo7au.pyomo.lp
Objective sense      : Minimize
Variables            :   26081  [Nneg: 1,  Box: 21616,  Free: 4464]
Objective nonzeros   :    2496
Linear constraints   :   27515  [Less: 14006,  Greater: 4416,  Equal: 9093]
  Nonzeros           :   89219
  RHS nonzeros       :   12264

Variables            : Min LB: -5000.000        Max UB: 1000000.       
Objective nonzeros   : Min   : 15.73158         Max   : 124.0997       
Linear constraints   :
  Nonzeros           : Min   : 0.8500000        Max   : 3000.000       
  RHS nonzeros       : Min   : 0.01666667       Max   : 5000.000       
CPLEX> CPXPARAM_Parallel                                -1
CPXPARAM_Simplex_Tolerances_Feasibility          0.01
CPXPARAM_DetTimeLimit                            75000
CPXPARAM_MIP_Tolerances_MIPGap                   0.01
CPXPARAM_MIP_Tolerances_Integrality              1.0000000000000001e-09
Parallel mode: opportunistic, using up to 12 threads for concurrent optimization.
Tried aggregator 1 time.
LP Presolve eliminated 21377 rows and 15489 columns.
Aggregator did 751 substitutions.
Reduced LP has 5387 rows, 9841 columns, and 31774 nonzeros.
Presolve time = 0.05 sec. (30.21 ticks)
Symmetry aggregator did 5563 additional substitutions.

Iteration log . . .
Iteration:     1   Dual objective     =             0.000000
Perturbation started.
Iteration:   101   Dual objective     =             0.000000
Iteration:   339   Dual objective     =             1.318118
Iteration:   609   Dual objective     =             1.978191
Iteration:   866   Dual objective     =             2.128446
Iteration:  1065   Dual objective     =             2.242699
Iteration:  1337   Dual objective     =             2.300783
Iteration:  1588   Dual objective     =             2.331596
Iteration:  1816   Dual objective     =          3637.543386
Iteration:  2021   Dual objective     =         93383.973594
Iteration:  2229   Dual objective     =        153541.178549
Iteration:  2427   Dual objective     =        166076.311941
Iteration:  2664   Dual objective     =        173887.324655
Iteration:  3037   Dual objective     =        179381.730216
Removing perturbation.
Dual superbasis not built.
Using devex.

Primal simplex solved model.


Primal simplex - Optimal:  Objective =  1.8001839012e+05
Solution time =    0.13 sec.  Iterations = 1761 (1069)
Deterministic time = 81.58 ticks  (652.64 ticks/sec)

CPLEX> Solution written to file 'C:\Users\Luke\Desktop\test919\logs\tmpbylnwqsd.cplex.sol'.
CPLEX> Exporting results... 
...storage offer mitigation file created
Converting model to MPEC...
...converted
NOTE: initial MIP solve with only storage competitive to get feasible solution
Solving...

Welcome to IBM(R) ILOG(R) CPLEX(R) Interactive Optimizer 12.9.0.0
  with Simplex, Mixed Integer & Barrier Optimizers
5725-A06 5725-A29 5724-Y48 5724-Y49 5724-Y54 5724-Y55 5655-Y21
Copyright IBM Corp. 1988, 2019.  All Rights Reserved.

Type 'help' for a list of available commands.
Type 'help' followed by a command name for more
information on commands.

CPLEX> Logfile 'cplex.log' closed.
Logfile 'C:\Users\Luke\Desktop\test919\logs\tmpt6wqj8cr.cplex.log' open.
CPLEX> New value for parallel optimization mode: -1
CPLEX> New value for mixed integer optimality gap tolerance: 0.01
CPLEX> New value for integrality tolerance: 1e-09
CPLEX> New value for feasibility tolerance: 0.01
CPLEX> New value for deterministic time limit in ticks: 75000
CPLEX> Problem 'C:\Users\Luke\Desktop\test919\logs\tmpfjtusy_f.pyomo.lp' read.
Read time = 0.20 sec. (14.78 ticks)
CPLEX> Problem name         : C:\Users\Luke\Desktop\test919\logs\tmpfjtusy_f.pyomo.lp
Objective sense      : Maximize
Variables            :   53805  [Nneg: 1,  Box: 22000,  Free: 4464,
                                 Binary: 27340]
Objective nonzeros   :    9022
Linear constraints   :  123205  [Less: 41346,  Greater: 59096,  Equal: 22763]
  Nonzeros           :  291746
  RHS nonzeros       :   67462

Variables            : Min LB: -5000.000        Max UB: 1000000.       
Objective nonzeros   : Min   : 0.01666667       Max   : 2500.000       
Linear constraints   :
  Nonzeros           : Min   : 0.01666667       Max   : 1000000.       
  RHS nonzeros       : Min   : 0.01666667       Max   : 1000000.       
CPLEX> CPXPARAM_Parallel                                -1
CPXPARAM_Simplex_Tolerances_Feasibility          0.01
CPXPARAM_DetTimeLimit                            75000
CPXPARAM_MIP_Tolerances_MIPGap                   0.01
CPXPARAM_MIP_Tolerances_Integrality              1.0000000000000001e-09
Tried aggregator 3 times.
MIP Presolve eliminated 88727 rows and 19048 columns.
MIP Presolve added 3346 rows and 0 columns.
MIP Presolve modified 24834 coefficients.
Aggregator did 12956 substitutions.
Reduced MIP has 24868 rows, 21242 columns, and 70934 nonzeros.
Reduced MIP has 8391 binaries, 0 generals, 0 SOSs, and 0 indicators.
Presolve time = 0.23 sec. (173.48 ticks)
Probing fixed 391 vars, tightened 2816 bounds.
Probing time = 1.55 sec. (874.69 ticks)
Tried aggregator 2 times.
MIP Presolve eliminated 884 rows and 790 columns.
MIP Presolve modified 2206 coefficients.
Aggregator did 46 substitutions.
Reduced MIP has 23938 rows, 20406 columns, and 68238 nonzeros.
Reduced MIP has 7996 binaries, 0 generals, 0 SOSs, and 0 indicators.
Presolve time = 0.09 sec. (66.46 ticks)
Probing time = 0.05 sec. (15.90 ticks)
Clique table members: 6522.
MIP emphasis: balance optimality and feasibility.
MIP search method: dynamic search.
Parallel mode: opportunistic, using up to 12 threads.
Root relaxation solution time = 0.36 sec. (280.91 ticks)

        Nodes                                         Cuts/
   Node  Left     Objective  IInf  Best Integer    Best Bound    ItCnt     Gap

      0     0     3962.2157  2035                   3962.2157     6592         
      0     0     3962.2157     9                 Flowcuts: 6     6593         
      0     0     3962.2157     8                 Flowcuts: 6     6594         
      0     0     3962.2157     8                 Flowcuts: 6     6595         
      0     2     3962.2157     8                 Impl Bds: 2     6595         
Elapsed time = 10.36 sec. (4939.80 ticks, tree = 0.02 MB, solutions = 0)
*   130+   78                         2623.9130     3962.2153            51.00%
*   169    73      integral     0     3961.6603     3962.2153     7090    0.01%
    216    66     3776.8230     5     3961.6603     3962.2153     7112    0.01%

Implied bound cuts applied:  2
Flow cuts applied:  5

Root node processing (before b&c):
  Real time             =    9.92 sec. (4909.66 ticks)
Parallel b&c, 12 threads:
  Real time             =    1.67 sec. (582.81 ticks)
  Sync time (average)   =    0.10 sec.
  Wait time (average)   =    0.00 sec.
                          ------------
Total (root+branch&cut) =   11.59 sec. (5492.46 ticks)

Solution pool: 4 solutions saved.

MIP - Integer optimal, tolerance (0.01/1e-06):  Objective =  3.9616602630e+03
Current MIP best bound =  3.9622152823e+03 (gap = 0.555019, 0.01%)
Solution time =   11.61 sec.  Iterations = 7327  Nodes = 232 (1)
Deterministic time = 5492.62 ticks  (473.13 ticks/sec)

CPLEX> Incumbent solution written to file 'C:\Users\Luke\Desktop\test919\logs\tmpris0cgph.cplex.sol'.
CPLEX> NOTE: no warmstart specified for MIP iteration, default behavior is true
NOTE: resolving with all competitive generators using storage-only solution to warmstart
Solving...

Welcome to IBM(R) ILOG(R) CPLEX(R) Interactive Optimizer 12.9.0.0
  with Simplex, Mixed Integer & Barrier Optimizers
5725-A06 5725-A29 5724-Y48 5724-Y49 5724-Y54 5724-Y55 5655-Y21
Copyright IBM Corp. 1988, 2019.  All Rights Reserved.

Type 'help' for a list of available commands.
Type 'help' followed by a command name for more
information on commands.

CPLEX> Logfile 'cplex.log' closed.
Logfile 'C:\Users\Luke\Desktop\test919\logs\tmpgdgzx996.cplex.log' open.
CPLEX> New value for parallel optimization mode: -1
CPLEX> New value for mixed integer optimality gap tolerance: 0.01
CPLEX> New value for integrality tolerance: 1e-09
CPLEX> New value for feasibility tolerance: 0.01
CPLEX> New value for deterministic time limit in ticks: 75000
CPLEX> Problem 'C:\Users\Luke\Desktop\test919\logs\tmpt_r52pnf.pyomo.lp' read.
Read time = 0.20 sec. (14.81 ticks)
CPLEX> MIP start file 'C:\Users\Luke\Desktop\test919\logs\tmpiatubm31.cplex.mst' read.
CPLEX> Problem name         : C:\Users\Luke\Desktop\test919\logs\tmpt_r52pnf.pyomo.lp
Objective sense      : Maximize
Variables            :   54525  [Nneg: 1,  Box: 22720,  Free: 4464,
                                 Binary: 27340]
Objective nonzeros   :    9718
Linear constraints   :  123205  [Less: 41346,  Greater: 59096,  Equal: 22763]
  Nonzeros           :  291746
  RHS nonzeros       :   67462

Variables            : Min LB: -5000.000        Max UB: 1000000.       
Objective nonzeros   : Min   : 0.01666667       Max   : 2500.000       
Linear constraints   :
  Nonzeros           : Min   : 0.01666667       Max   : 1000000.       
  RHS nonzeros       : Min   : 0.01666667       Max   : 1000000.       
CPLEX> CPXPARAM_Parallel                                -1
CPXPARAM_Simplex_Tolerances_Feasibility          0.01
CPXPARAM_DetTimeLimit                            75000
CPXPARAM_MIP_Tolerances_MIPGap                   0.01
CPXPARAM_MIP_Tolerances_Integrality              1.0000000000000001e-09
Warning:  No solution found from 1 MIP starts.
Retaining values of one MIP start for possible repair.
Tried aggregator 3 times.
MIP Presolve eliminated 88727 rows and 19768 columns.
MIP Presolve added 3346 rows and 0 columns.
MIP Presolve modified 24834 coefficients.
Aggregator did 12956 substitutions.
Reduced MIP has 24868 rows, 21242 columns, and 70934 nonzeros.
Reduced MIP has 8391 binaries, 0 generals, 0 SOSs, and 0 indicators.
Presolve time = 0.23 sec. (173.84 ticks)
Probing fixed 391 vars, tightened 2816 bounds.
Probing time = 1.53 sec. (874.69 ticks)
Tried aggregator 2 times.
MIP Presolve eliminated 884 rows and 790 columns.
MIP Presolve modified 2206 coefficients.
Aggregator did 46 substitutions.
Reduced MIP has 23938 rows, 20406 columns, and 68238 nonzeros.
Reduced MIP has 7996 binaries, 0 generals, 0 SOSs, and 0 indicators.
Presolve time = 0.09 sec. (66.46 ticks)
Probing time = 0.05 sec. (15.90 ticks)
Clique table members: 6522.
MIP emphasis: balance optimality and feasibility.
MIP search method: dynamic search.
Parallel mode: opportunistic, using up to 12 threads.
Root relaxation solution time = 0.39 sec. (289.99 ticks)

        Nodes                                         Cuts/
   Node  Left     Objective  IInf  Best Integer    Best Bound    ItCnt     Gap

      0     0   193755.1329  2115                 193755.1329     6276         
      0     0   189088.0225   698                   Cuts: 813     6793         
      0     0   188516.6779   591                   Cuts: 456     6994         
      0     0   188343.8155   545                   Cuts: 187     7069         
      0     0   188312.6237   532                    Cuts: 84     7096         
      0     0   188311.0698   525                    Cuts: 57     7103         
      0     0   188311.0698   525                    Cuts: 29     7103         
Repair heuristic found nothing.
      0     2   188311.0698   524                     Cuts: 8     7105         
Elapsed time = 12.95 sec. (6153.22 ticks, tree = 0.02 MB, solutions = 0)
    112    41   155731.2929   480                 187275.8478     7719         
    213   145   179051.5843   499                 187275.8478     9595         
    396   270   147261.2353   433                 187275.8478    11207         
    638   413    infeasible                       187275.8478    13342         
    918   507   130027.3391   386                 187275.8478    19512         
   1179   596   115479.0074   398                 187275.8478    26399         
   1427   803   150342.3392   381                 187275.8478    29398         
   1685   738   135935.4578   383                 187275.8478    28648         
   1911   940   136236.8152   372                 187275.8478    31448         
   2939  1370    87698.8740   287                 187275.8478    41210         
Elapsed time = 26.53 sec. (9260.59 ticks, tree = 17.53 MB, solutions = 0)
   4454  2540    86921.8165   272                 187275.8478    45309         
*  5029+ 3454                        83627.7394   187275.8478           123.94%
*  5648  3323      integral     0   103170.9267   187275.8478    48843   81.52%
   6031  3328   182628.5477   477   103170.9267   187275.8478    48989   81.52%
*  6082  3530      integral     0   107781.7658   187275.8478    49648   73.75%
   6341  2420        cutoff         107781.7658   170714.0743    65530   58.39%
   6843   314   121145.6743   205   107781.7658   170714.0743    71560   58.39%
   7578   762   118641.5502   200   107781.7658   170714.0743    75595   58.39%
   8198  1195   138117.6618   155   107781.7658   164273.8778    78770   52.41%
   9322  1979   136949.9553   126   107781.7658   162994.5724    85568   51.23%
  10405  2733   129702.3963   107   107781.7658   152587.2702    94062   41.57%
  11392  3682   150585.3986   246   107781.7658   152216.1341   109196   41.23%
Elapsed time = 72.22 sec. (23285.67 ticks, tree = 29.98 MB, solutions = 5)
  12238  4080   137447.2168   140   107781.7658   150774.4245   117430   39.89%
  12416  4569   138306.7887   114   107781.7658   150145.2851   123307   39.30%
  13341  4722   139185.8086   175   107781.7658   150118.4475   124572   39.28%
  14256  5581        cutoff         107781.7658   150027.7265   132439   39.20%
  15152  6422   120431.8188   146   107781.7658   146589.5229   140704   36.01%
  16159  6692   114385.8432   158   107781.7658   145658.6017   144020   35.14%
  17258  7632   131867.7646   196   107781.7658   145583.8365   151603   35.07%
  18434  8788   135606.6154   177   107781.7658   145143.5129   159945   34.66%
  19422  9527   108072.7079    91   107781.7658   144870.3088   165462   34.41%
  20482 10647   121209.5532    87   107781.7658   144430.6024   174221   34.00%
Elapsed time = 112.22 sec. (32831.64 ticks, tree = 90.68 MB, solutions = 5)
  21621 11333   112189.3004    86   107781.7658   144430.6024   179326   34.00%
  22820 12586   108175.2393    60   107781.7658   144430.6024   188490   34.00%
  23908 14263   133550.6980   117   107781.7658   144338.7787   199886   33.92%
  25008 15035   133008.6926   107   107781.7658   144140.9197   205709   33.73%
  26207 15415   114545.8303    94   107781.7658   144080.0402   208411   33.68%
  27434 16691   121308.7182   111   107781.7658   144009.1920   217269   33.61%
  28510 18381   135273.3801   174   107781.7658   143973.0882   228304   33.58%
  29390 18175   126615.4156   202   107781.7658   143973.0882   226660   33.58%
  29691 19832   132469.3632   152   107781.7658   143898.8713   239050   33.51%
  30258 20274   116871.5859   118   107781.7658   143892.9903   241522   33.50%
Elapsed time = 149.89 sec. (42375.62 ticks, tree = 177.28 MB, solutions = 5)
  31405 20596   135077.0549   215   107781.7658   143892.5416   243403   33.50%
  32689 21271   124210.2952   246   107781.7658   143892.5416   248053   33.50%
  33941 23935   109411.5679    49   107781.7658   143882.3476   263797   33.49%
  35066 23557        cutoff         107781.7658   143782.4863   261659   33.40%
  36224 23588   112719.5417   101   107781.7658   143782.4863   262032   33.40%
  37218 25526   120151.5221   130   107781.7658   143757.8818   274195   33.38%
  38393 26502   135287.0831   186   107781.7658   143757.8818   279979   33.38%
  39661 27078   115140.0510   131   107781.7658   143743.3298   283370   33.37%
  40872 28007   124704.9672   117   107781.7658   143743.3298   289644   33.37%
  42006 28932   108840.0503   165   107781.7658   143743.3298   294932   33.37%
Elapsed time = 191.91 sec. (51921.73 ticks, tree = 258.50 MB, solutions = 5)
  42999 28637   116673.3279   165   107781.7658   143743.3298   293594   33.37%
  44023 28728   113692.6269   102   107781.7658   143743.3298   294121   33.37%
  45091 30892   111556.2094    94   107781.7658   143743.3298   306810   33.37%
  46123 29264   119381.2315   153   107781.7658   143743.3298   297316   33.37%
  47106 31883   119631.4265    34   107781.7658   143743.3298   313255   33.37%
  48000 31580   120017.9867    84   107781.7658   143743.3298   312144   33.37%
  48965 30848   112615.2897    93   107781.7658   143668.8752   307569   33.30%
  49923 33572   110635.3544    72   107781.7658   143664.5976   326494   33.29%
  51060 32197   111067.7802   124   107781.7658   143664.5976   315745   33.29%
* 51866 36204      integral     0   115119.2902   143664.5976   342368   24.80%
Elapsed time = 233.14 sec. (61244.85 ticks, tree = 328.17 MB, solutions = 6)
  52899 32016   119617.6704    64   115119.2902   143645.9719   314853   24.78%
* 53260 31813      integral     0   119617.6425   143645.9719   314899   20.09%
  53764 37635   143449.9388   229   119617.6425   143645.9719   353965   20.09%
  54635 30354   131051.0511   143   119617.6425   143638.0679   371231   20.08%
  55561 34083   130984.4309   114   119617.6425   143638.0679   329806   20.08%
  56618 29710   126750.0290   137   119617.6425   143638.0679   365476   20.08%
  57425 29805   123159.6760   149   119617.6425   143638.0679   366148   20.08%
  58120 38976   133329.6265   137   119617.6425   143638.0679   362615   20.08%
  58883 38247   116432.4916   143   119617.6425   143638.0679   357354   20.08%
  59552 38339   109204.6469    99   119617.6425   143638.0679   358135   20.08%
  60165 25969   125667.7585   173   119617.6425   143638.0679   382533   20.08%
Elapsed time = 254.64 sec. (70790.61 ticks, tree = 224.30 MB, solutions = 9)
  60897 39270   132312.8426   164   119617.6425   143638.0679   364686   20.08%
  61427 38805   111582.9112   105   119617.6425   143638.0679   364099   20.08%
  61648 29668   115393.5405    90   119617.6425   143638.0679   364553   20.08%
  61753 26319   131154.6551   161   119617.6425   143638.0679   385123   20.08%

GUB cover cuts applied:  1
Clique cuts applied:  21
Cover cuts applied:  23
Implied bound cuts applied:  34
Flow cuts applied:  501
Mixed integer rounding cuts applied:  84
Gomory fractional cuts applied:  88

Root node processing (before b&c):
  Real time             =   12.30 sec. (6111.16 ticks)
Parallel b&c, 12 threads:
  Real time             =  245.92 sec. (68895.74 ticks)
  Sync time (average)   =    0.73 sec.
  Wait time (average)   =    0.05 sec.
                          ------------
Total (root+branch&cut) =  258.22 sec. (75006.90 ticks)

Solution pool: 9 solutions saved.

MIP - Deterministic time limit exceeded, integer feasible:  Objective =  1.1961764254e+05
Current MIP best bound =  1.4358119972e+05 (gap = 23963.6, 20.03%)
Solution time =  258.22 sec.  Iterations = 438378  Nodes = 61792 (31285)
Deterministic time = 75007.05 ticks  (290.48 ticks/sec)

CPLEX> Incumbent solution written to file 'C:\Users\Luke\Desktop\test919\logs\tmpl3axxum3.cplex.sol'.
CPLEX> Exporting results... 
